100
787 922
53 905
325 90
39 652
346 265
928 385
755 301
851 981
762 601
533 349
845 863
181 551
740 796
313 641
945 666
866 278
234 169
653 124
716 35
194 836
447 677
491 123
538 825
322 453
390 213
98 86
315 77
8 587
175 222
629 425
825 557
132 661
70 272
657 17
541 619
427 958
378 201
874 885
662 308
500 493
211 439
429 667
129 987
101 840
461 678
228 85
713 304
245 863
869 984
71 216
827 56
18 823
753 769
97 998
572 740
578 916
512 287
645 646
591 644
524 889
4 269
985 422
967 822
356 824
361 335
811 539
867 381
56 190
535 98
238 631
201 720
678 51
769 422
756 555
119 157
200 310
48 411
721 425
197 926
947 145
0 501
950 592
833 349
203 130
469 869
114 877
238 753
685 397
498 549
557 898
386 790
443 440
480 52
605 557
504 41
542 893
275 467
240 554
618 496
372 633
